17	4
38	42	46	25	
0	0	0	0	0	3	2	3	4	
8	0	8	8	0	3	8	9	10	
4	0	0	9	10	2	17	17	
9	5	7	5	5	3	5	6	14	
6	0	0	3	0	3	7	13	17	
200	1	10	8	4	3	11	13	17	
200	1	5	4	0	1	17	
100	10	8	3	0	1	16	
150	5	10	7	0	2	15	16	
250	4	9	9	7	2	12	17	
125	8	5	6	0	2	17	17	
25	9	0	1	1	1	17	
2	0	7	4	6	1	17	
5	9	0	4	4	1	17	
9	6	10	10	0	1	17	
10	9	4	2	7	1	17	
0	0	0	0	0	0	
